nNurses = 120;
nHours = 29;
minHours = 7;
maxHours = 20;
maxConsec = 8;
maxPresence = 9;
demand = [6, 11, 10, 8, 6, 9, 8, 10, 10, 11, 12, 14, 17, 15, 14, 19, 20, 15, 19, 15, 15, 18, 19, 18, 23, 26, 22, 22, 20];
